CapLotSizing_PM/src/Instancias/TCLSLT/6i12p4m/NBB04.OUT
 CG ITER, OVMR, OVMRUB =           1   15497.4208984   14675.4326172
 CG ITER, OVMR, OVMRUB =           2   14675.4335938   14675.4326172
 CG ITER, OVMR, OVMRUB =           3   14491.5107422   14491.5078125
 CG ITER, OVMR, OVMRUB =           4   13941.9960938   14491.5078125
 CG ITER, OVMR, OVMRUB =           5   13154.0380859   13890.2451172
 CG ITER, OVMR, OVMRUB =           6   12172.5712891   13890.2451172
 CG ITER, OVMR, OVMRUB =           7   12278.7070312   13890.2451172
 CG ITER, OVMR, OVMRUB =           8   12336.1464844   13834.0761719
 CG ITER, OVMR, OVMRUB =           9   11288.7412109   13834.0761719
 CG ITER, OVMR, OVMRUB =          10   11509.2832031   13834.0761719
 CG ITER, OVMR, OVMRUB =          11   11641.2910156   13834.0761719
 CG ITER, OVMR, OVMRUB =          12   11723.8652344   13834.0761719
 CG ITER, OVMR, OVMRUB =          13   11779.0791016   13834.0761719
 CG ITER, OVMR, OVMRUB =          14   11832.6230469   13834.0761719
 CG ITER, OVMR, OVMRUB =          15   11882.9785156   13834.0761719
 CG ITER, OVMR, OVMRUB =          16   11935.5312500   13834.0761719
 CG ITER, OVMR, OVMRUB =          17   11987.6074219   13834.0761719
 CG ITER, OVMR, OVMRUB =          18   12039.0244141   13834.0761719
 CG ITER, OVMR, OVMRUB =          19   12086.2001953   13834.0761719
 CG ITER, OVMR, OVMRUB =          20   12132.8115234   13834.0761719
 CG ITER, OVMR, OVMRUB =          21   12179.6630859   13834.0761719
 CG ITER, OVMR, OVMRUB =          22   12222.8310547   13834.0761719
 CG ITER, OVMR, OVMRUB =          23   12268.0625000   13834.0761719
 CG ITER, OVMR, OVMRUB =          24   12311.6503906   13834.0761719
 CG ITER, OVMR, OVMRUB =          25   12320.3457031   13834.0761719
 CG ITER, OVMR, OVMRUB =          26   12351.9482422   13834.0761719
 CG ITER, OVMR, OVMRUB =          27   12388.5917969   13565.5615234
 CG ITER, OVMR, OVMRUB =          28   12385.1152344   13565.5615234
 CG ITER, OVMR, OVMRUB =          29   12402.2001953   13565.5615234
 CG ITER, OVMR, OVMRUB =          30   12417.5126953   13565.5615234
 CG ITER, OVMR, OVMRUB =          31   12429.5468750   13565.5615234
 CG ITER, OVMR, OVMRUB =          32   12432.3583984   13519.6738281
 CG ITER, OVMR, OVMRUB =          33   12457.7148438   13519.6738281
 CG ITER, OVMR, OVMRUB =          34   12478.9609375   13519.6738281
 CG ITER, OVMR, OVMRUB =          35   12491.0937500   13519.6738281
 CG ITER, OVMR, OVMRUB =          36   12506.2109375   13519.6738281
 CG ITER, OVMR, OVMRUB =          37   12509.1103516   13519.6738281
 CG ITER, OVMR, OVMRUB =          38   12516.5341797   13284.4824219
 CG ITER, OVMR, OVMRUB =          39   12522.8652344   13284.4824219
 CG ITER, OVMR, OVMRUB =          40   12530.8427734   13284.4824219
 CG ITER, OVMR, OVMRUB =          41   12513.1582031   13284.4824219
 CG ITER, OVMR, OVMRUB =          42   12514.6884766   13284.4824219
 CG ITER, OVMR, OVMRUB =          43   12515.0556641   13284.4824219
 CG ITER, OVMR, OVMRUB =          44   12507.2988281   13284.4824219
 CG ITER, OVMR, OVMRUB =          45   12507.2988281   13284.4824219
OVLB =   12507.2988281 OVLUB =   13284.4824219 TIME =       5.3800001
